n_nodes = 44;
M = 2211;
n_domains = 11;
domain_link_weights = [|0,1148,328,0,0,0,0,0,0,0,0|0,0,0,0,0,0,0,0,0,0,263|0,0,0,0,0,0,0,0,0,872,0|0,0,0,0,1137,0,1643,0,0,0,0|0,0,0,0,0,503,1507,0,0,0,0|0,0,0,0,0,0,0,0,2210,0,0|0,0,0,0,0,0,0,893,0,0,0|0,0,0,0,0,0,0,0,1039,0,732|0,0,0,0,0,0,0,0,0,1129,0|0,0,0,0,0,0,0,0,0,0,686|0,0,0,0,0,0,0,0,0,0,0|];
num_node_links = 80;
node_links = [|0,1|0,2|1,10|2,9|3,4|3,6|4,5|4,6|5,8|6,7|7,8|7,10|8,9|9,10|1,12|12,1|1,32|32,1|1,37|37,1|2,13|13,2|2,36|36,2|2,43|43,2|3,14|14,3|3,28|28,3|3,38|38,3|3,41|41,3|4,15|15,4|4,26|26,4|4,31|31,4|5,16|16,5|5,27|27,5|5,33|33,5|5,42|42,5|6,17|17,6|7,18|18,7|7,34|34,7|7,35|35,7|8,19|19,8|8,24|24,8|9,20|20,9|9,29|29,9|9,30|30,9|9,39|39,9|9,44|44,9|10,21|21,10|10,23|23,10|10,25|25,10|11,22|22,11|11,40|40,11|];
nodes = [|1,9,0,0,0,0,1,1|2,9,0,0,0,0,1,2|3,9,0,0,0,0,1,3|4,9,0,0,0,0,1,4|5,9,0,0,0,0,1,5|6,9,0,0,0,0,1,6|7,9,0,0,0,0,1,7|8,9,0,0,0,0,1,8|9,9,0,0,0,0,1,9|10,9,0,0,0,0,1,10|11,9,0,0,0,0,1,11|12,10,0,0,0,0,1,1|13,10,0,0,0,0,1,2|14,10,0,0,0,0,1,3|15,10,0,0,0,0,1,4|16,10,0,0,0,0,1,5|17,10,0,0,0,0,1,6|18,10,0,0,0,0,1,7|19,10,0,0,0,0,1,8|20,10,0,0,0,0,1,9|21,10,0,0,0,0,1,10|22,10,0,0,0,0,1,11|23,2,0,0,0,0,1,10|24,3,0,0,0,0,1,8|25,1,0,0,0,0,1,10|26,5,0,0,0,0,1,4|27,2,0,0,0,0,1,5|28,2,0,0,0,0,1,3|29,5,0,0,0,0,1,9|30,3,0,0,0,0,1,9|31,2,0,0,0,0,1,4|32,3,0,0,0,0,1,1|33,4,0,0,0,0,1,5|34,5,0,0,0,0,1,7|35,3,0,0,0,0,1,7|36,1,0,0,0,0,1,2|37,2,0,0,0,0,1,1|38,3,0,0,0,0,1,3|39,5,0,0,0,0,1,9|40,5,0,0,0,0,1,11|41,4,0,0,0,0,1,3|42,5,0,0,0,0,1,5|43,4,0,0,0,0,1,2|44,3,0,0,0,0,1,9|];
